c read Graph
c width = 275
c time = 224 ms
c width = 18
c time = 352 ms
c width = 17
c time = 1737 ms
c width = 16
c time = 2629 ms
c width = 15
c time = 4084 ms
c width = 14
c time = 9420 ms
c width = 13
c time = 15114 ms
c width = 13
c time = 17035 ms
s td 315 14 338
b 1 25 26
b 2 313 314
b 3 1 2 3
b 4 1 3 28
b 5 21 23 50 51
b 6 21 49 50 51
b 7 21 49 51 77
b 8 49 75 76 77
b 9 262 288 289 316
b 10 262 289 290 316
b 11 262 290 316 318
b 12 21 47 48 49
b 13 262 263 264 290
b 14 290 291 292 318
b 15 3 5 28 30
b 16 5 7 28 30 32
b 17 7 9 28 30 32 34
b 18 9 11 28 30 32 34 36
b 19 11 13 28 30 32 34 36 38
b 20 13 15 28 30 32 34 36 38 40
b 21 15 17 28 30 32 34 36 38 40 42
b 22 17 28 30 32 34 36 38 40 42 70 98 126 128 155
b 23 28 30 32 34 36 38 40 41 42 70 98 126 128 155
b 24 28 30 32 34 36 38 39 40 41 70 98 126 128 155
b 25 28 30 32 34 36 37 38 39 41 70 98 126 128 155
b 26 28 30 32 34 35 36 37 39 41 70 98 126 128 155
b 27 28 30 32 33 34 35 37 39 41 70 98 126 128 155
b 28 28 30 31 32 33 35 37 39 41 70 98 126 128 155
b 29 28 29 30 31 33 35 37 39 41 70 98 126 128 155
b 30 28 29 31 33 35 37 39 41 56 70 98 126 128 155
b 31 28 31 33 35 37 39 41 56 58 70 98 126 128 155
b 32 28 33 35 37 39 41 56 58 60 70 98 126 128 155
b 33 28 35 37 39 41 56 58 60 62 70 98 126 128 155
b 34 28 37 39 41 56 58 60 62 64 70 98 126 128 155
b 35 28 39 41 56 58 60 62 64 66 70 98 126 128 155
b 36 28 41 56 58 60 62 64 66 68 70 98 126 128 155
b 37 28 56 58 60 62 64 66 68 69 70 98 126 128 155
b 38 28 56 58 60 62 64 66 67 68 69 98 126 128 155
b 39 28 56 58 60 62 64 65 66 67 69 98 126 128 155
b 40 28 56 58 60 62 64 65 67 69 92 98 126 128 155
b 41 28 56 58 60 62 64 67 69 92 94 98 126 128 155
b 42 28 56 58 60 62 64 69 92 94 96 98 126 128 155
b 43 28 56 58 60 62 64 92 94 96 97 98 126 128 155
b 44 28 56 58 60 62 64 92 94 95 96 97 126 128 155
b 45 28 56 58 60 62 64 92 93 94 95 97 126 128 155
b 46 28 56 58 60 62 64 92 93 95 97 120 126 128 155
b 47 28 56 58 60 62 64 92 95 97 120 122 126 128 155
b 48 28 56 58 60 62 64 92 97 120 122 124 126 128 155
b 49 28 56 58 60 62 64 92 120 122 124 126 128 154 155
b 50 28 56 58 60 62 64 92 120 122 124 125 126 154 155
b 51 28 56 58 60 62 64 92 120 122 124 125 152 154 155
b 52 28 56 58 60 62 64 92 120 122 124 152 154 155 180
b 53 152 153 154 180
b 54 28 54 56 58 60 62 64 92 120 122 124 152 155 180
b 55 54 56 58 60 62 63 64 92 120 122 124 152 155 180
b 56 54 56 58 60 61 62 63 92 120 122 124 152 155 180
b 57 54 56 58 59 60 61 63 92 120 122 124 152 155 180
b 58 54 56 57 58 59 61 63 92 120 122 124 152 155 180
b 59 54 55 56 57 59 61 63 92 120 122 124 152 155 180
b 60 54 55 57 59 61 63 80 92 120 122 124 152 155 180
b 61 55 57 59 61 63 80 82 92 120 122 124 152 155 180
b 62 57 59 61 63 80 82 84 92 120 122 124 152 155 180
b 63 59 61 63 80 82 84 86 92 120 122 124 152 155 180
b 64 61 63 80 82 84 86 88 92 120 122 124 152 155 180
b 65 63 80 82 84 86 88 90 92 120 122 124 152 155 180
b 66 80 82 84 86 88 90 91 92 120 122 124 152 155 180
b 67 80 82 84 86 88 89 90 91 120 122 124 152 155 180
b 68 80 82 84 86 87 88 89 91 120 122 124 152 155 180
b 69 80 82 84 85 86 87 89 91 120 122 124 152 155 180
b 70 80 82 83 84 85 87 89 91 120 122 124 152 155 180
b 71 80 82 83 85 87 89 91 110 120 122 124 152 155 180
b 72 80 82 85 87 89 91 110 112 120 122 124 152 155 180
b 73 80 82 87 89 91 110 112 114 120 122 124 152 155 180
b 74 80 82 89 91 110 112 114 116 120 122 124 152 155 180
b 75 80 82 91 110 112 114 116 118 120 122 124 152 155 180
b 76 80 82 110 112 114 116 118 120 122 123 124 152 155 180
b 77 80 82 110 112 114 116 118 120 121 122 123 152 155 180
b 78 80 82 110 112 114 116 118 119 120 121 123 152 155 180
b 79 80 82 110 112 114 116 117 118 119 121 123 152 155 180
b 80 80 82 110 112 114 115 116 117 119 121 123 152 155 180
b 81 80 82 110 112 113 114 115 117 119 121 123 152 155 180
b 82 80 82 110 111 112 113 115 117 119 121 123 152 155 180
b 83 80 82 110 111 113 115 117 119 121 123 138 152 155 180
b 84 80 82 110 113 115 117 119 121 123 138 140 152 155 180
b 85 80 82 110 115 117 119 121 123 138 140 142 152 155 180
b 86 80 82 110 117 119 121 123 138 140 142 144 152 155 180
b 87 80 82 110 119 121 123 138 140 142 144 146 152 155 180
b 88 80 82 110 121 123 138 140 142 144 146 148 152 155 180
b 89 80 82 110 123 138 140 142 144 146 148 150 152 155 180
b 90 80 82 110 138 140 142 144 146 148 150 151 152 155 180
b 91 80 82 110 138 140 142 144 146 148 149 150 151 155 180
b 92 80 82 110 138 140 142 144 146 147 148 149 151 155 180
b 93 80 82 110 138 140 142 144 145 146 147 149 151 155 180
b 94 80 82 110 138 140 142 143 144 145 147 149 151 155 180
b 95 80 82 110 138 140 141 142 143 145 147 149 151 155 180
b 96 80 82 110 138 140 141 143 145 147 149 151 155 168 180
b 97 80 82 110 138 140 143 145 147 149 151 155 168 170 180
b 98 80 82 110 138 140 145 147 149 151 155 168 170 172 180
b 99 80 82 110 138 140 147 149 151 155 168 170 172 174 180
b 100 80 82 110 138 140 149 151 155 168 170 172 174 176 180
b 101 80 82 110 138 140 151 155 168 170 172 174 176 178 180
b 102 80 82 110 138 140 155 168 170 172 174 176 178 180 181
b 103 80 82 110 138 140 168 170 172 174 176 178 180 181 206
b 104 80 82 110 138 140 168 170 172 174 176 178 181 204 206
b 105 80 82 110 138 140 168 170 172 174 176 181 202 204 206
b 106 80 82 110 138 140 168 170 172 173 174 181 202 204 206
b 107 80 82 110 138 140 168 170 172 173 181 200 202 204 206
b 108 80 82 110 138 140 168 170 172 181 200 202 204 206 207
b 109 80 82 110 138 140 168 170 172 200 202 204 206 207 232
b 110 80 82 110 138 140 168 170 172 200 202 204 207 230 232
b 111 80 82 110 138 140 168 170 172 200 202 207 228 230 232
b 112 80 82 110 138 140 168 170 172 200 207 228 230 232 259
b 113 207 228 230 232 233 259
b 114 80 82 110 138 140 166 168 170 172 200 228 230 232 259
b 115 80 82 110 138 166 168 170 172 198 200 228 230 232 259
b 116 80 82 110 138 166 168 169 170 198 200 228 230 232 259
b 117 80 82 110 138 166 168 169 196 198 200 228 230 232 259
b 118 80 82 110 138 166 168 196 198 200 226 228 230 232 259
b 119 80 82 110 138 166 168 196 197 198 226 228 230 232 259
b 120 80 82 110 138 166 168 196 197 224 226 228 230 232 259
b 121 80 82 110 138 166 168 196 224 226 228 230 232 258 259
b 122 80 82 110 138 166 168 196 224 226 228 229 230 258 259
b 123 80 82 110 138 166 168 196 224 226 227 228 229 258 259
b 124 80 82 110 138 166 168 196 224 226 227 229 252 258 259
b 125 80 82 110 138 166 168 196 224 227 229 252 254 258 259
b 126 80 82 110 138 166 168 196 224 229 252 254 256 258 259
b 127 80 82 110 138 166 168 196 224 252 254 256 258 259 284
b 128 256 257 258 284
b 129 80 82 110 138 166 168 194 196 224 252 254 256 259 284
b 130 80 82 110 138 166 194 196 222 224 252 254 256 259 284
b 131 80 82 110 138 166 194 222 224 252 254 256 259 282 284
b 132 80 82 110 138 166 194 222 224 252 254 259 280 282 284
b 133 80 82 110 138 166 194 222 224 252 259 280 282 284 311
b 134 80 82 110 138 166 194 222 224 252 280 282 283 284 311
b 135 80 82 110 138 166 194 222 224 252 280 282 283 308 311
b 136 80 82 110 138 166 194 222 224 252 279 280 283 308 311
b 137 80 82 110 138 166 194 222 224 252 279 283 308 310 311
b 138 80 82 110 138 166 194 222 224 252 279 308 310 311 336
b 139 80 82 110 138 166 194 222 224 252 278 279 306 308 336
b 140 80 82 110 138 166 194 222 224 252 278 306 308 332 336
b 141 80 82 110 138 166 194 222 224 248 252 276 278 306 332
b 142 80 82 110 138 166 194 220 222 248 252 276 278 306 332
b 143 80 82 110 138 166 192 194 220 248 252 276 278 306 332
b 144 192 193 194 220
b 145 80 82 110 138 166 192 220 248 276 278 302 306 328 332
b 146 276 278 302 304 306 328 332
b 147 304 305 306 332
b 148 276 277 278 304
b 149 302 304 328 330 332
b 150 302 303 304 330
b 151 220 221 222 248
b 152 222 224 248 250 252 276 278
b 153 222 223 224 250
b 154 248 249 250 276
b 155 250 251 252 278
b 156 306 308 332 334 336
b 157 306 307 308 334
b 158 308 309 310 336
b 159 280 281 282 308
b 160 259 284 285 311
b 161 252 253 254 280
b 162 254 255 256 282
b 163 194 195 196 222
b 164 166 167 168 194
b 165 224 225 226 252
b 166 230 231 232 258
b 167 198 199 200 226
b 168 170 171 172 198
b 169 138 139 140 166
b 170 200 201 202 228
b 171 202 203 204 230
b 172 204 205 206 232
b 173 174 175 176 202
b 174 176 177 178 204
b 175 178 179 180 206
b 176 126 127 128 154
b 177 17 42 44 70 98 126 128 155
b 178 42 43 44 70
b 179 17 44 70 72 98 126 128 155
b 180 70 71 72 98
b 181 17 44 72 98 100 126 128 155
b 182 17 44 72 100 103 128 155
b 183 103 128 129 155
b 184 17 44 72 75 100 103 128
b 185 75 100 101 103 128
b 186 75 101 102 103
b 187 17 44 46 72 75 100 103
b 188 44 45 46 72
b 189 17 46 47 72 75 100 103
b 190 47 72 73 75 100
b 191 47 73 74 75
b 192 17 21 46 47 75 103
b 193 17 19 21 46
b 194 21 47 75 77 103
b 195 21 47 49 75 77
b 196 98 99 100 126
b 197 162 163 164 190
b 198 164 165 166 192
b 199 190 191 192 218
b 200 272 273 274 300
b 201 274 275 276 302
b 202 300 301 302 328
b 203 136 137 138 164
b 204 298 299 300 326
b 205 298 300 324 326 328
b 206 80 82 110 138 166 192 220 248 274 276 302 328
b 207 272 274 298 300 302 324 328
b 208 80 82 110 132 136 138 160 162 164
b 209 80 82 110 138 164 166 192 220 248 274 302 328
b 210 132 160 162 164 190 192 218 244 272 298 324
b 211 132 160 162 164 192 218 220 244 248 272 274 298 324
b 212 80 82 110 132 138 160 162 164 192 220 248 274 302 328
b 213 132 160 162 164 192 220 248 272 274 298 302 324 328
b 214 272 274 298 302 324 328
b 215 80 82 110 132 134 136 160 162
b 216 80 82 108 110 132 134 136
b 217 80 81 82 108
b 218 108 109 110 136
b 219 80 107 108 132 134
b 220 80 106 107 132
b 221 132 133 134 160
b 222 134 135 136 162
b 223 218 220 244 246 248 272 274
b 224 246 247 248 274
b 225 244 245 246 272
b 226 218 219 220 246
b 227 132 160 162 188 190 218 244 272 298 324
b 228 160 161 162 188
b 229 132 160 184 188 190 212 214 218 244 272 298 324
b 230 184 188 190 212 214 218 242 244 272 298 324
b 231 188 190 214 216 218 242 244
b 232 188 189 190 216
b 233 216 217 218 244
b 234 214 215 216 242
b 235 184 212 214 242 244 270 272 298 324
b 236 242 243 244 270
b 237 270 271 272 298
b 238 184 212 214 242 270 296 298 324
b 239 296 297 298 324
b 240 184 212 214 242 268 270 296 324
b 241 184 212 214 240 242 268 296 324
b 242 240 241 242 268
b 243 212 213 214 240
b 244 184 212 240 268 294 296 320 324
b 245 294 296 320 322 324
b 246 294 295 296 322
b 247 184 212 240 266 268 294 320
b 248 184 212 238 240 266 294 320
b 249 184 212 236 238 266 294 320
b 250 184 211 212 236 238
b 251 184 210 211 236
b 252 236 238 266 292 294 320
b 253 292 293 294 320
b 254 236 238 264 266 292 320
b 255 264 265 266 292
b 256 236 264 292 318 320
b 257 236 264 290 292 318
b 258 236 262 264 290 318
b 259 236 237 238 264
b 260 238 239 240 266
b 261 266 267 268 294
b 262 268 269 270 296
b 263 132 160 184 186 188 212 214
b 264 132 159 160 184 186
b 265 132 158 159 184
b 266 184 185 186 212
b 267 186 187 188 214
b 268 334 335 336
b 269 332 333 334
b 270 330 331 332
b 271 328 329 330
b 272 326 327 328
b 273 324 325 326
b 274 322 323 324
b 275 320 321 322
b 276 318 319 320
b 277 316 317 318
b 278 311 336 337
b 279 311 337 338
b 280 287 288 316
b 281 287 315 316
b 282 287 314 315
b 283 285 311 312
b 284 261 262 288
b 285 259 285 286
b 286 235 236 262
b 287 233 259 260
b 288 209 210 236
b 289 207 233 234
b 290 183 184 210
b 291 181 207 208
b 292 157 158 184
b 293 155 181 182
b 294 131 132 158
b 295 129 155 156
b 296 105 106 132
b 297 103 129 130
b 298 79 80 106
b 299 77 103 104
b 300 53 54 80
b 301 51 77 78
b 302 27 28 54
b 303 23 25 52
b 304 23 51 52
b 305 23 24 25
b 306 21 22 23
b 307 19 20 21
b 308 17 18 19
b 309 15 16 17
b 310 13 14 15
b 311 11 12 13
b 312 9 10 11
b 313 7 8 9
b 314 5 6 7
b 315 3 4 5
1 303
2 282
3 4
4 15
5 306
5 304
5 6
6 7
7 301
7 195
8 195
9 284
9 280
9 10
10 11
11 277
11 258
12 195
13 258
14 257
15 315
15 16
16 314
16 17
17 313
17 18
18 312
18 19
19 311
19 20
20 310
20 21
21 309
21 22
22 177
22 23
23 24
24 25
25 26
26 27
27 28
28 29
29 30
30 31
31 32
32 33
33 34
34 35
35 36
36 37
37 38
38 39
39 40
40 41
41 42
42 43
43 44
44 45
45 46
46 47
47 48
48 49
49 176
49 50
50 51
51 52
52 54
52 53
54 302
54 55
55 56
56 57
57 58
58 59
59 60
60 300
60 61
61 62
62 63
63 64
64 65
65 66
66 67
67 68
68 69
69 70
70 71
71 72
72 73
73 74
74 75
75 76
76 77
77 78
78 79
79 80
80 81
81 82
82 83
83 84
84 85
85 86
86 87
87 88
88 89
89 90
90 91
91 92
92 93
93 94
94 95
95 96
96 97
97 98
98 99
99 100
100 101
101 102
102 293
102 103
103 175
103 104
104 174
104 105
105 173
105 106
106 107
107 108
108 291
108 109
109 172
109 110
110 171
110 111
111 170
111 112
112 114
112 113
113 289
113 287
114 169
114 115
115 168
115 116
116 117
117 118
118 167
118 119
119 120
120 121
121 166
121 122
122 123
123 124
124 165
124 125
125 126
126 127
127 129
127 128
129 164
129 130
130 163
130 131
131 162
131 132
132 161
132 133
133 160
133 134
134 135
135 159
135 136
136 137
137 138
138 278
138 158
138 139
139 140
140 156
140 141
141 152
141 142
142 151
142 143
143 145
143 144
145 206
145 146
146 149
146 148
146 147
149 271
149 270
149 150
152 154
152 155
152 153
156 269
156 268
156 157
160 285
160 283
177 179
177 178
179 180
179 181
181 182
181 196
182 183
182 184
183 297
183 295
184 185
184 187
185 186
187 188
187 189
189 190
189 192
190 191
192 193
192 194
193 308
193 307
194 299
194 195
197 210
198 209
199 210
200 207
201 206
202 207
203 208
204 205
205 273
205 272
205 207
206 209
207 214
208 215
208 212
209 212
210 227
210 211
211 223
211 213
212 213
213 214
215 221
215 222
215 216
216 218
216 219
216 217
219 220
220 298
220 296
223 226
223 225
223 224
227 228
227 229
229 263
229 230
230 231
230 235
231 232
231 234
231 233
235 236
235 237
235 238
238 239
238 240
240 262
240 241
241 243
241 242
241 244
244 245
244 247
245 275
245 274
245 246
247 261
247 248
248 260
248 249
249 250
249 252
250 251
251 290
251 288
252 253
252 254
254 259
254 255
254 256
256 276
256 257
257 258
258 286
263 266
263 264
263 267
264 265
265 294
265 292
278 279
280 281
281 282
303 305
303 304
